\* Problem: Unknown *\

Minimize
 obj: - 100 x_4 - 100 x_10 - 100 x_17 - 10 x_20 - 100 x_22 - 100 x_28
 - 10 x_31 - 10 x_32 - 10 x_33 - 10 x_34 - 10 x_35 - 10 x_36 - 10 x_37
 - 10 x_38 + 100 x_39 + 100 x_40 + 100 x_41 + 100 x_42 + 100 x_43
 + 100 x_44 + 100 x_45 + 110 x_46 + 100 x_47 + 100 x_48 - 99900 x_49
 - 101 x_50 - 101 x_51 - 101 x_52 - 101 x_53 - 101 x_54 - 101 x_55
 - 101 x_56 - 101 x_57 - 101 x_58 - 101 x_59 - 91 x_60 - 101 x_61
 - 100 x_62 - 100 x_63 - 100 x_64 - 100 x_65 - 100 x_66 - 100 x_67
 - 100 x_68 - 100 x_69 - 100 x_70 - 100 x_71 - 90 x_72 - 100 x_73
 - 100100 x_74 + 100 x_75 + 100 x_76 + 100 x_78 - 99900 x_79 - x_80
 - x_81 - 100 x_84 - x_86 - 100 x_88 - x_90 - x_92 - 3 x_94 - 3 x_95
 - 103 x_96 - 3 x_97 - 2 x_98 - 2 x_99 - 102 x_100 - 2 x_101 - 2 x_102
 - 2 x_103 - 102 x_104 - 2 x_105 - x_106 - x_107 - 101 x_108 - x_109
 - 2 x_110 - 2 x_111 - 102 x_112 - 2 x_113 - x_114 - x_115 - 101 x_116
 - x_117 - x_118 - x_119 - 101 x_120 - x_121 - 100 x_124 - 100 x_126
 - x_128 - x_129 - 101 x_130 - x_131 - 100 x_134 - x_136 + 100 x_138
 - x_139 - 101 x_141 - x_142 - 100 x_143 - x_145 - x_147 - x_148 - x_149
 - x_150 - x_151 + 9 x_152 + 10 x_158 - x_159 - 99 x_161 - 100 x_162
 - 100 x_163 - 99 x_165 - 100 x_166 - 100 x_167 - 99 x_169 - 100 x_170
 - 100 x_171 - 99 x_173 - 100 x_174 - 100 x_175 - 99 x_177 - 100 x_178
 - 100 x_179 - 99 x_181 - 100 x_182 - 100 x_183 - 99 x_185 - 100 x_186
 - 100 x_187 - 99 x_189 - 100 x_190 - 100 x_191 - 99 x_193 - 100 x_194
 - 100 x_195 - 99 x_197 - 100 x_198 - 100 x_199 - 100 x_203 - 99 x_205
 - 100 x_206 - 100 x_207 - 99 x_209 - 100 x_210 - 100 x_211 - 100 x_215
 - x_217 - 3 x_219 - 3 x_220 - 103 x_221 - 3 x_222 - 2 x_223 - 2 x_224
 - 102 x_225 - 2 x_226 - 2 x_227 - 2 x_228 - 102 x_229 - 2 x_230 - x_231
 - x_232 - 101 x_233 - x_234 - 2 x_235 - 2 x_236 - 102 x_237 - 2 x_238
 - x_239 - x_240 - 101 x_241 - x_242 - x_243 - x_244 - 101 x_245 - x_246
 - 100 x_249 - 100 x_251 - 99 x_253 - 100 x_254 - 100 x_255 - 99 x_257
 - 100 x_258 - 100 x_259 - 100 x_263 - 99 x_265 - 100 x_266 - 100 x_267
 - 99 x_269 - 100 x_270 - 100 x_271 - 99 x_273 - 100 x_274 - 100 x_275
 - 99 x_277 - 100 x_278 - 100 x_279 - 99 x_281 - 100 x_282 - 100 x_283
 - 100 x_285 + 100 x_286 + 100 x_287 + 100 x_288 + 100 x_289 + 100 x_290
 + 100 x_292 + 100 x_293 - 99900 x_294 + 100 x_295 + 100 x_296
 + 100 x_297 + 100 x_298 + 100 x_300 + 100 x_301 - 99900 x_302
 - 100 x_307 - 100 x_310 - 100 x_312 - 100 x_315 - 100 x_318 - 100 x_320
 - 100 x_322 - 100 x_325 - 100 x_330

Subject To
 r_1: + x_6 + x_5 + x_4 + x_3 + x_2 + x_1 = 95432.256
 r_2: + x_12 + x_11 + x_10 + x_9 + x_8 + x_7 = 321878.88
 r_3: + x_286 - ~r_3 = 0
 r_4: + x_250 + x_249 + x_248 + x_247 + x_246 + x_245 + x_244 + x_243
 + x_242 + x_241 + x_240 + x_239 + x_238 + x_237 + x_236 + x_235 + x_234
 + x_233 + x_232 + x_231 + x_230 + x_229 + x_228 + x_227 + x_226 + x_225
 + x_224 + x_223 + x_222 + x_221 + x_220 + x_219 + x_125 + x_124 + x_123
 + x_122 + x_121 + x_120 + x_119 + x_118 + x_117 + x_116 + x_115 + x_114
 + x_113 + x_112 + x_111 + x_110 + x_109 + x_108 + x_107 + x_106 + x_105
 + x_104 + x_103 + x_102 + x_101 + x_100 + x_99 + x_98 + x_97 + x_96
 + x_95 + x_94 - ~r_4 = 0
 r_5: + x_250 + x_249 + x_248 + x_247 + x_246 + x_245 + x_244 + x_243
 + x_242 + x_241 + x_240 + x_239 + x_238 + x_237 + x_236 + x_235 + x_234
 + x_233 + x_232 + x_231 + x_230 + x_229 + x_228 + x_227 + x_226 + x_225
 + x_224 + x_223 + x_222 + x_221 + x_220 + x_219 + x_135 + x_134 + x_133
 + x_132 + x_131 + x_130 + x_129 + x_128 + x_125 + x_124 + x_123 + x_122
 + x_121 + x_120 + x_119 + x_118 + x_117 + x_116 + x_115 + x_114 + x_113
 + x_112 + x_111 + x_110 + x_109 + x_108 + x_107 + x_106 + x_105 + x_104
 + x_103 + x_102 + x_101 + x_100 + x_99 + x_98 + x_97 + x_96 + x_95
 + x_94 - ~r_5 = 0
 r_6: + x_331 + x_330 + x_329 + x_328 + x_308 + x_307 + x_306 + x_305
 + x_300 + x_299 + x_298 + x_297 + x_292 + x_291 + x_290 + x_289 + x_250
 + x_249 + x_248 + x_247 + x_246 + x_245 + x_244 + x_243 + x_242 + x_241
 + x_240 + x_239 + x_238 + x_237 + x_236 + x_235 + x_234 + x_233 + x_232
 + x_231 + x_230 + x_229 + x_228 + x_227 + x_226 + x_225 + x_224 + x_223
 + x_222 + x_221 + x_220 + x_219 + x_135 + x_134 + x_133 + x_132 + x_131
 + x_130 + x_129 + x_128 + x_125 + x_124 + x_123 + x_122 + x_121 + x_120
 + x_119 + x_118 + x_117 + x_116 + x_115 + x_114 + x_113 + x_112 + x_111
 + x_110 + x_109 + x_108 + x_107 + x_106 + x_105 + x_104 + x_103 + x_102
 + x_101 + x_100 + x_99 + x_98 + x_97 + x_96 + x_95 + x_94 + x_29 + x_28
 + x_27 + x_26 + x_18 + x_17 + x_16 + x_15 + x_11 + x_10 + x_9 + x_8
 + x_5 + x_4 + x_3 + x_2 >= 0
 r_7: + x_331 + x_330 + x_329 + x_328 + x_308 + x_307 + x_306 + x_305
 + x_300 + x_299 + x_298 + x_297 + x_292 + x_291 + x_290 + x_289 + x_250
 + x_249 + x_248 + x_247 + x_246 + x_245 + x_244 + x_243 + x_242 + x_241
 + x_240 + x_239 + x_238 + x_237 + x_236 + x_235 + x_234 + x_233 + x_232
 + x_231 + x_230 + x_229 + x_228 + x_227 + x_226 + x_225 + x_224 + x_223
 + x_222 + x_221 + x_220 + x_219 + x_135 + x_134 + x_133 + x_132 + x_131
 + x_130 + x_129 + x_128 + x_125 + x_124 + x_123 + x_122 + x_121 + x_120
 + x_119 + x_118 + x_117 + x_116 + x_115 + x_114 + x_113 + x_112 + x_111
 + x_110 + x_109 + x_108 + x_107 + x_106 + x_105 + x_104 + x_103 + x_102
 + x_101 + x_100 + x_99 + x_98 + x_97 + x_96 + x_95 + x_94 + x_29 + x_28
 + x_27 + x_26 + x_18 + x_17 + x_16 + x_15 + x_11 + x_10 + x_9 + x_8
 + x_5 + x_4 + x_3 + x_2 >= 0
 r_8: + x_216 + x_215 + x_214 + x_213 + x_78 + x_77 + x_76 + x_75 >= 0
 r_9: + x_216 + x_215 + x_214 + x_213 + x_78 + x_77 + x_76 + x_75 >= 0
 r_10: + x_39 - ~r_10 = 0
 r_11: + x_73 + x_72 + x_71 + x_70 + x_69 + x_68 + x_67 + x_66 + x_65
 + x_64 + x_63 + x_62 + x_61 + x_60 + x_59 + x_58 + x_57 + x_56 + x_55
 + x_54 + x_53 + x_52 + x_51 + x_50 - ~r_11 = 0
 r_12: + x_158 + x_157 + x_156 + x_155 + x_154 + x_153 + x_152 + x_151
 + x_150 + x_149 + x_148 + x_147 + x_72 + x_71 + x_70 + x_69 + x_68
 + x_67 + x_60 + x_59 + x_58 + x_57 + x_56 + x_55 + x_46 + x_45 + x_44
 + x_43 + x_42 + x_41 >= 0
 r_13: + x_198 + x_197 + x_194 + x_193 >= 0
 r_14: + x_197 + x_193 - ~r_14 = 0
 r_15: + x_198 + x_194 - ~r_15 = 0
 r_16: + x_266 + x_265 + x_206 + x_205 + x_178 + x_177 >= 0
 r_17: + x_265 + x_205 + x_177 - ~r_17 = 0
 r_18: + x_266 + x_206 + x_178 - ~r_18 = 0
 r_19: + x_19 + x_18 + x_17 + x_16 + x_15 + x_14 + x_13 = 83274.048
 r_20: + x_328 + x_305 + x_297 + x_289 + x_247 + x_243 + x_239 + x_235
 + x_231 + x_227 + x_223 + x_219 + x_132 + x_128 + x_122 + x_118 + x_114
 + x_110 + x_106 + x_102 + x_98 + x_94 + x_26 + x_15 + x_8 + x_2 - ~r_20
 = 0
 r_21: + x_213 + x_75 - ~r_21 = 0
 r_22: + x_154 + x_148 + x_68 + x_56 + x_42 - ~r_22 = 0
 r_23: + x_72 + x_71 + x_70 + x_69 + x_68 + x_67 + x_66 + x_65 + x_64
 + x_60 + x_59 + x_58 + x_57 + x_56 + x_55 + x_54 + x_53 + x_52 >= 0
 r_24: + x_65 + x_53 - ~r_24 = 0
 r_25: + x_155 + x_149 + x_69 + x_57 + x_43 - ~r_25 = 0
 r_26: + x_331 + x_330 + x_323 + x_322 + x_319 + x_318 + x_316 + x_315
 + x_313 + x_312 + x_308 + x_307 + x_300 + x_299 + x_292 + x_291 + x_250
 + x_249 + x_246 + x_245 + x_242 + x_241 + x_238 + x_237 + x_234 + x_233
 + x_230 + x_229 + x_226 + x_225 + x_222 + x_221 + x_216 + x_215 + x_144
 + x_143 + x_142 + x_141 + x_135 + x_134 + x_131 + x_130 + x_125 + x_124
 + x_121 + x_120 + x_117 + x_116 + x_113 + x_112 + x_109 + x_108 + x_105
 + x_104 + x_101 + x_100 + x_97 + x_96 + x_78 + x_77 + x_29 + x_28
 + x_23 + x_22 + x_18 + x_17 + x_11 + x_10 + x_5 + x_4 >= 0
 r_27: + x_82 + x_80 - ~r_27 = 0
 r_28: + x_156 + x_150 + x_70 + x_58 + x_44 - ~r_28 = 0
 r_29: + x_332 + x_331 + x_330 + x_329 + x_328 + x_327 + x_309 + x_308
 + x_307 + x_306 + x_305 + x_304 + x_301 + x_300 + x_299 + x_298 + x_297
 + x_296 + x_293 + x_292 + x_291 + x_290 + x_289 + x_288 + x_30 + x_29
 + x_28 + x_27 + x_26 + x_25 + x_19 + x_18 + x_17 + x_16 + x_15 + x_14
 + x_12 + x_11 + x_10 + x_9 + x_8 + x_7 + x_6 + x_5 + x_4 + x_3 + x_2
 + x_1 >= 0
 r_30: + x_327 + x_304 + x_296 + x_288 + x_25 + x_14 + x_7 + x_1 - ~r_30
 = 0
 r_31: + x_332 + x_331 + x_330 + x_329 + x_328 + x_309 + x_308 + x_307
 + x_306 + x_305 + x_301 + x_300 + x_299 + x_298 + x_297 + x_293 + x_292
 + x_291 + x_290 + x_289 + x_30 + x_29 + x_28 + x_27 + x_26 + x_19
 + x_18 + x_17 + x_16 + x_15 + x_12 + x_11 + x_10 + x_9 + x_8 + x_6
 + x_5 + x_4 + x_3 + x_2 >= 0
 r_32: + x_332 + x_309 + x_301 + x_293 + x_30 + x_19 + x_12 + x_6
 - ~r_32 = 0
 r_33: + x_329 + x_321 + x_317 + x_314 + x_311 + x_306 + x_298 + x_290
 + x_248 + x_244 + x_240 + x_236 + x_232 + x_228 + x_224 + x_220 + x_214
 + x_133 + x_129 + x_123 + x_119 + x_115 + x_111 + x_107 + x_103 + x_99
 + x_95 + x_76 + x_27 + x_21 + x_16 + x_9 + x_3 - ~r_33 = 0
 r_34: + x_201 - ~r_34 = 0
 r_35: + x_202 - ~r_35 = 0
 r_36: + x_198 + x_197 - ~r_36 = 0
 r_37: + x_40 - ~r_37 = 0
 r_38: + x_206 + x_205 - ~r_38 = 0
 r_39: + x_326 + x_303 + x_295 + x_13 - ~r_39 = 0
 r_40: + x_24 - ~r_40 = 0
 r_41: + x_66 + x_54 + x_48 - ~r_41 = 0
 r_42: + x_157 + x_151 + x_71 + x_59 + x_45 - ~r_42 = 0
 r_43: + x_66 + x_65 + x_64 + x_54 + x_53 + x_52 >= 0
 r_44: + x_47 - ~r_44 = 0
 r_45: + x_62 + x_50 - ~r_45 = 0
 r_46: + x_261 - ~r_46 = 0
 r_47: + x_73 + x_72 + x_71 + x_70 + x_69 + x_68 + x_67 + x_66 + x_65
 + x_64 + x_63 + x_61 + x_60 + x_59 + x_58 + x_57 + x_56 + x_55 + x_54
 + x_53 + x_52 + x_51 >= 0
 r_48: + x_63 + x_51 - ~r_48 = 0
 r_49: + x_73 + x_72 + x_71 + x_70 + x_69 + x_68 + x_67 + x_66 + x_65
 + x_64 + x_61 + x_60 + x_59 + x_58 + x_57 + x_56 + x_55 + x_54 + x_53
 + x_52 >= 0
 r_50: + x_73 + x_61 - ~r_50 = 0
 r_51: + x_153 + x_147 + x_67 + x_55 + x_41 - ~r_51 = 0
 r_52: + x_158 + x_157 + x_156 + x_155 + x_154 + x_153 + x_152 + x_151
 + x_150 + x_149 + x_148 + x_147 + x_72 + x_71 + x_70 + x_69 + x_68
 + x_67 + x_60 + x_59 + x_58 + x_57 + x_56 + x_55 + x_46 + x_45 + x_44
 + x_43 + x_42 + x_41 >= 0
 r_53: + x_20 = 208.449
 r_54: + x_81 + x_80 - ~r_54 = 0
 r_55: + x_86 - ~r_55 = 0
 r_56: + x_90 - ~r_56 = 0
 r_57: + x_242 + x_241 + x_240 + x_239 + x_238 + x_237 + x_236 + x_235
 + x_226 + x_225 + x_224 + x_223 + x_222 + x_221 + x_220 + x_219 + x_117
 + x_116 + x_115 + x_114 + x_113 + x_112 + x_111 + x_110 + x_101 + x_100
 + x_99 + x_98 + x_97 + x_96 + x_95 + x_94 - ~r_57 = 0
 r_58: + x_234 + x_233 + x_232 + x_231 + x_230 + x_229 + x_228 + x_227
 + x_226 + x_225 + x_224 + x_223 + x_222 + x_221 + x_220 + x_219 + x_109
 + x_108 + x_107 + x_106 + x_105 + x_104 + x_103 + x_102 + x_101 + x_100
 + x_99 + x_98 + x_97 + x_96 + x_95 + x_94 - ~r_58 = 0
 r_59: + x_246 + x_245 + x_244 + x_243 + x_238 + x_237 + x_236 + x_235
 + x_230 + x_229 + x_228 + x_227 + x_222 + x_221 + x_220 + x_219 + x_131
 + x_130 + x_129 + x_128 + x_121 + x_120 + x_119 + x_118 + x_113 + x_112
 + x_111 + x_110 + x_105 + x_104 + x_103 + x_102 + x_97 + x_96 + x_95
 + x_94 - ~r_59 = 0
 r_60: + x_61 + x_60 + x_59 + x_58 + x_57 + x_56 + x_55 + x_54 + x_53
 + x_52 + x_51 + x_50 - ~r_60 = 0
 r_61: + x_142 + x_141 - ~r_61 = 0
 r_62: + x_152 + x_151 + x_150 + x_149 + x_148 + x_147 - ~r_62 = 0
 r_63: + x_157 + x_156 + x_155 + x_154 + x_151 + x_150 + x_149 + x_148
 + x_71 + x_70 + x_69 + x_68 + x_59 + x_58 + x_57 + x_56 + x_45 + x_44
 + x_43 + x_42 >= 0
 r_64: + x_287 + x_87 + x_86 >= 0
 r_65: + x_23 + x_22 + x_21 = 643431.168
 r_66: + x_30 + x_29 + x_28 + x_27 + x_26 + x_25 + x_24 = 285404.256
 r_67: + x_258 + x_257 + x_170 + x_169 + x_166 + x_165 >= 0
 r_68: + x_257 + x_169 + x_165 - ~r_68 = 0
 r_69: + x_258 + x_170 + x_166 - ~r_69 = 0
 r_70: + x_31 = 197290.976420001
 r_71: + x_32 = 1461151.07212983
 r_72: + x_33 = 550172.438235145
 r_73: + x_34 = 710001.586652527
 r_74: + x_35 = 22697.6286925544
 r_75: + x_36 = 26882.7159489401
 r_76: + x_37 = 41214.381763172
 r_77: + x_38 = 475146.278918787
 r_78: + x_72 + x_71 + x_70 + x_69 + x_68 + x_67 + x_60 + x_59 + x_58
 + x_57 + x_56 + x_55 + x_46 + x_45 + x_44 + x_43 + x_42 + x_41 >= 0
 r_79: + x_49 + x_48 + x_47 + x_46 + x_45 + x_44 + x_43 + x_42 + x_41
 + x_40 + x_39 >= 0
 r_80: + x_330 + x_322 + x_318 + x_315 + x_312 + x_307 + x_299 + x_291
 + x_249 + x_245 + x_241 + x_237 + x_233 + x_229 + x_225 + x_221 + x_215
 + x_143 + x_141 + x_134 + x_130 + x_124 + x_120 + x_116 + x_112 + x_108
 + x_104 + x_100 + x_96 + x_77 + x_28 + x_22 + x_17 + x_10 + x_4 >= 0
 r_81: + x_74 + x_73 + x_72 + x_71 + x_70 + x_69 + x_68 + x_67 + x_66
 + x_65 + x_64 + x_63 + x_62 + x_61 + x_60 + x_59 + x_58 + x_57 + x_56
 + x_55 + x_54 + x_53 + x_52 + x_51 + x_50 >= 0
 r_82: + x_138 >= 0
 r_83: + x_79 + x_78 + x_77 + x_76 + x_75 >= 0
 r_84: + x_325 + x_320 >= 0
 r_85: + x_83 + x_82 + x_81 + x_80 >= 0
 r_86: + x_40 >= 0
 r_87: + x_85 + x_84 >= 0
 r_88: + x_84 - ~r_88 = 0
 r_89: + x_85 >= 0
 r_90: + x_87 + x_86 >= 0
 r_91: + x_286 >= 0
 r_92: + x_89 + x_88 >= 0
 r_93: + x_88 - ~r_93 = 0
 r_94: + x_89 >= 0
 r_95: + x_91 + x_90 >= 0
 r_96: + x_39 >= 0
 r_97: + x_93 + x_92 >= 0
 r_98: + x_92 - ~r_98 = 0
 r_99: + x_93 >= 0
 r_100: + x_125 + x_124 + x_123 + x_122 + x_121 + x_120 + x_119 + x_118
 + x_117 + x_116 + x_115 + x_114 + x_113 + x_112 + x_111 + x_110 + x_109
 + x_108 + x_107 + x_106 + x_105 + x_104 + x_103 + x_102 + x_101 + x_100
 + x_99 + x_98 + x_97 + x_96 + x_95 + x_94 >= 0
 r_101: + x_326 + x_303 + x_295 + x_13 >= 0
 r_102: + x_127 + x_126 >= 0
 r_103: + x_126 - ~r_103 = 0
 r_104: + x_127 >= 0
 r_105: + x_135 + x_134 + x_133 + x_132 + x_131 + x_130 + x_129 + x_128
 >= 0
 r_106: + x_24 >= 0
 r_107: + x_137 + x_136 >= 0
 r_108: + x_136 - ~r_108 = 0
 r_109: + x_137 >= 0
 r_110: + x_138 >= 0
 r_111: + x_91 + x_90 >= 0
 r_112: + x_140 + x_139 >= 0
 r_113: + x_139 - ~r_113 = 0
 r_114: + x_140 >= 0
 r_115: + x_144 + x_143 + x_142 + x_141 >= 0
 r_116: + x_213 + x_75 >= 0
 r_117: + x_146 + x_145 >= 0
 r_118: + x_145 - ~r_118 = 0
 r_119: + x_146 >= 0
 r_120: + x_158 + x_157 + x_156 + x_155 + x_154 + x_153 + x_152 + x_151
 + x_150 + x_149 + x_148 + x_147 >= 0
 r_121: + x_64 + x_52 >= 0
 r_122: + x_160 + x_159 >= 0
 r_123: + x_159 - ~r_123 = 0
 r_124: + x_160 >= 0
 r_125: + x_162 + x_161 >= 0
 r_126: + x_154 + x_148 + x_68 + x_56 + x_42 >= 0
 r_127: + x_164 + x_163 >= 0
 r_128: + x_163 - ~r_128 = 0
 r_129: + x_164 >= 0
 r_130: + x_166 + x_165 >= 0
 r_131: + x_66 + x_54 + x_48 >= 0
 r_132: + x_168 + x_167 >= 0
 r_133: + x_167 - ~r_133 = 0
 r_134: + x_168 >= 0
 r_135: + x_170 + x_169 >= 0
 r_136: + x_65 + x_53 >= 0
 r_137: + x_172 + x_171 >= 0
 r_138: + x_171 - ~r_138 = 0
 r_139: + x_172 >= 0
 r_140: + x_174 + x_173 >= 0
 r_141: + x_155 + x_149 + x_69 + x_57 + x_43 >= 0
 r_142: + x_176 + x_175 >= 0
 r_143: + x_175 - ~r_143 = 0
 r_144: + x_176 >= 0
 r_145: + x_178 + x_177 >= 0
 r_146: + x_82 + x_80 >= 0
 r_147: + x_180 + x_179 >= 0
 r_148: + x_179 - ~r_148 = 0
 r_149: + x_180 >= 0
 r_150: + x_182 + x_181 >= 0
 r_151: + x_156 + x_150 + x_70 + x_58 + x_44 >= 0
 r_152: + x_184 + x_183 >= 0
 r_153: + x_183 - ~r_153 = 0
 r_154: + x_184 >= 0
 r_155: + x_186 + x_185 >= 0
 r_156: + x_327 + x_304 + x_296 + x_288 + x_25 + x_14 + x_7 + x_1 >= 0
 r_157: + x_188 + x_187 >= 0
 r_158: + x_187 - ~r_158 = 0
 r_159: + x_188 >= 0
 r_160: + x_190 + x_189 >= 0
 r_161: + x_332 + x_309 + x_301 + x_293 + x_30 + x_19 + x_12 + x_6 >= 0
 r_162: + x_192 + x_191 >= 0
 r_163: + x_191 - ~r_163 = 0
 r_164: + x_192 >= 0
 r_165: + x_194 + x_193 >= 0
 r_166: + x_201 >= 0
 r_167: + x_196 + x_195 >= 0
 r_168: + x_195 - ~r_168 = 0
 r_169: + x_196 >= 0
 r_170: + x_198 + x_197 >= 0
 r_171: + x_331 + x_323 + x_319 + x_316 + x_313 + x_308 + x_300 + x_292
 + x_250 + x_246 + x_242 + x_238 + x_234 + x_230 + x_226 + x_222 + x_216
 + x_202 + x_144 + x_142 + x_135 + x_131 + x_125 + x_121 + x_117 + x_113
 + x_109 + x_105 + x_101 + x_97 + x_78 + x_29 + x_23 + x_18 + x_11 + x_5
 >= 0
 r_172: + x_200 + x_199 >= 0
 r_173: + x_199 - ~r_173 = 0
 r_174: + x_200 >= 0
 r_175: + x_202 + x_201 >= 0
 r_176: + x_329 + x_321 + x_317 + x_314 + x_311 + x_306 + x_298 + x_290
 + x_248 + x_244 + x_240 + x_236 + x_232 + x_228 + x_224 + x_220 + x_214
 + x_133 + x_129 + x_123 + x_119 + x_115 + x_111 + x_107 + x_103 + x_99
 + x_95 + x_76 + x_27 + x_21 + x_16 + x_9 + x_3 >= 0
 r_177: + x_204 + x_203 >= 0
 r_178: + x_203 - ~r_178 = 0
 r_179: + x_204 >= 0
 r_180: + x_206 + x_205 >= 0
 r_181: + x_83 + x_81 >= 0
 r_182: + x_208 + x_207 >= 0
 r_183: + x_207 - ~r_183 = 0
 r_184: + x_208 >= 0
 r_185: + x_210 + x_209 >= 0
 r_186: + x_324 >= 0
 r_187: + x_212 + x_211 >= 0
 r_188: + x_211 - ~r_188 = 0
 r_189: + x_212 >= 0
 r_190: + x_216 + x_215 + x_214 + x_213 >= 0
 r_191: + x_328 + x_305 + x_297 + x_289 + x_247 + x_243 + x_239 + x_235
 + x_231 + x_227 + x_223 + x_219 + x_132 + x_128 + x_122 + x_118 + x_114
 + x_110 + x_106 + x_102 + x_98 + x_94 + x_26 + x_15 + x_8 + x_2 >= 0
 r_192: + x_218 + x_217 >= 0
 r_193: + x_217 - ~r_193 = 0
 r_194: + x_218 >= 0
 r_195: + x_250 + x_249 + x_248 + x_247 + x_246 + x_245 + x_244 + x_243
 + x_242 + x_241 + x_240 + x_239 + x_238 + x_237 + x_236 + x_235 + x_234
 + x_233 + x_232 + x_231 + x_230 + x_229 + x_228 + x_227 + x_226 + x_225
 + x_224 + x_223 + x_222 + x_221 + x_220 + x_219 >= 0
 r_196: + x_287 + x_87 + x_86 >= 0
 r_197: + x_252 + x_251 >= 0
 r_198: + x_251 - ~r_198 = 0
 r_199: + x_252 >= 0
 r_200: + x_254 + x_253 >= 0
 r_201: + x_157 + x_151 + x_71 + x_59 + x_45 >= 0
 r_202: + x_256 + x_255 >= 0
 r_203: + x_255 - ~r_203 = 0
 r_204: + x_256 >= 0
 r_205: + x_258 + x_257 >= 0
 r_206: + x_47 >= 0
 r_207: + x_260 + x_259 >= 0
 r_208: + x_259 - ~r_208 = 0
 r_209: + x_260 >= 0
 r_210: + x_262 + x_261 >= 0
 r_211: + x_62 + x_50 >= 0
 r_212: + x_264 + x_263 >= 0
 r_213: + x_263 - ~r_213 = 0
 r_214: + x_264 >= 0
 r_215: + x_266 + x_265 >= 0
 r_216: + x_262 >= 0
 r_217: + x_268 + x_267 >= 0
 r_218: + x_267 - ~r_218 = 0
 r_219: + x_268 >= 0
 r_220: + x_270 + x_269 >= 0
 r_221: + x_261 >= 0
 r_222: + x_272 + x_271 >= 0
 r_223: + x_271 - ~r_223 = 0
 r_224: + x_272 >= 0
 r_225: + x_274 + x_273 >= 0
 r_226: + x_63 + x_51 >= 0
 r_227: + x_276 + x_275 >= 0
 r_228: + x_275 - ~r_228 = 0
 r_229: + x_276 >= 0
 r_230: + x_278 + x_277 >= 0
 r_231: + x_73 + x_61 >= 0
 r_232: + x_280 + x_279 >= 0
 r_233: + x_279 - ~r_233 = 0
 r_234: + x_280 >= 0
 r_235: + x_282 + x_281 >= 0
 r_236: + x_153 + x_147 + x_67 + x_55 + x_41 >= 0
 r_237: + x_284 + x_283 >= 0
 r_238: + x_283 - ~r_238 = 0
 r_239: + x_284 >= 0
 r_240: + x_190 + x_189 + x_186 + x_185 >= 0
 r_241: + x_189 + x_185 = 0
 r_242: + x_190 + x_186 - ~r_242 = 0
 r_243: + x_157 + x_156 + x_155 + x_151 + x_150 + x_149 + x_71 + x_70
 + x_69 + x_59 + x_58 + x_57 + x_45 + x_44 + x_43 >= 0
 r_244: + x_285 = 150087.168
 r_245: + x_157 + x_156 + x_151 + x_150 + x_71 + x_70 + x_59 + x_58
 + x_45 + x_44 >= 0
 r_246: + x_294 + x_293 + x_292 + x_291 + x_290 + x_289 + x_288 + x_287
 + x_286 >= 0
 r_247: + x_285 >= 0
 r_248: + x_302 + x_301 + x_300 + x_299 + x_298 + x_297 + x_296 + x_295
 >= 0
 r_249: + x_310 >= 0
 r_250: + x_309 + x_308 + x_307 + x_306 + x_305 + x_304 + x_303
 = 895570.56
 r_251: + x_310 = 554728.608
 r_252: + x_313 + x_312 + x_311 = 150087.168
 r_253: + x_331 + x_330 + x_329 + x_313 + x_312 + x_311 + x_308 + x_307
 + x_306 + x_300 + x_299 + x_298 + x_292 + x_291 + x_290 + x_250 + x_249
 + x_248 + x_246 + x_245 + x_244 + x_242 + x_241 + x_240 + x_238 + x_237
 + x_236 + x_234 + x_233 + x_232 + x_230 + x_229 + x_228 + x_226 + x_225
 + x_224 + x_222 + x_221 + x_220 + x_135 + x_134 + x_133 + x_131 + x_130
 + x_129 + x_125 + x_124 + x_123 + x_121 + x_120 + x_119 + x_117 + x_116
 + x_115 + x_113 + x_112 + x_111 + x_109 + x_108 + x_107 + x_105 + x_104
 + x_103 + x_101 + x_100 + x_99 + x_97 + x_96 + x_95 + x_29 + x_28
 + x_27 + x_18 + x_17 + x_16 + x_11 + x_10 + x_9 + x_5 + x_4 + x_3 >= 0
 r_254: + x_316 + x_315 + x_314 = 88064.064
 r_255: + x_319 + x_318 + x_317 = 202171.68
 r_256: + x_301 + x_300 + x_299 + x_298 + x_297 + x_296 + x_295 - ~r_256
 = 0
 r_257: + x_320 = 117717.408
 r_258: + x_323 + x_322 + x_321 = 33229.3536
 r_259: + x_325 + x_324 = 33229.3536
 r_260: + x_331 + x_330 + x_323 + x_322 + x_319 + x_318 + x_316 + x_315
 + x_313 + x_312 + x_308 + x_307 + x_300 + x_299 + x_292 + x_291 + x_250
 + x_249 + x_246 + x_245 + x_242 + x_241 + x_238 + x_237 + x_234 + x_233
 + x_230 + x_229 + x_226 + x_225 + x_222 + x_221 + x_216 + x_215 + x_144
 + x_143 + x_142 + x_141 + x_135 + x_134 + x_131 + x_130 + x_125 + x_124
 + x_121 + x_120 + x_117 + x_116 + x_113 + x_112 + x_109 + x_108 + x_105
 + x_104 + x_101 + x_100 + x_97 + x_96 + x_78 + x_77 + x_29 + x_28
 + x_23 + x_22 + x_18 + x_17 + x_11 + x_10 + x_5 + x_4 >= 0
 r_261: + x_254 + x_253 + x_182 + x_181 + x_174 + x_173 >= 0
 r_262: + x_253 + x_181 + x_173 - ~r_262 = 0
 r_263: + x_254 + x_182 + x_174 - ~r_263 = 0
 r_264: + x_282 + x_281 + x_162 + x_161 >= 0
 r_265: + x_281 + x_161 - ~r_265 = 0
 r_266: + x_282 + x_162 - ~r_266 = 0
 r_267: + x_332 + x_331 + x_330 + x_329 + x_328 + x_327 + x_326
 = 536654.592
 r_268: + x_332 + x_331 + x_330 + x_329 + x_328 + x_327 + x_326 + x_309
 + x_308 + x_307 + x_306 + x_305 + x_304 + x_303 + x_301 + x_300 + x_299
 + x_298 + x_297 + x_296 + x_295 >= 0
 r_269: + x_250 + x_249 + x_248 + x_247 + x_246 + x_245 + x_244 + x_243
 + x_242 + x_241 + x_240 + x_239 + x_238 + x_237 + x_236 + x_235 + x_234
 + x_233 + x_232 + x_231 + x_230 + x_229 + x_228 + x_227 + x_226 + x_225
 + x_224 + x_223 + x_222 + x_221 + x_220 + x_219 + x_125 + x_124 + x_123
 + x_122 + x_121 + x_120 + x_119 + x_118 + x_117 + x_116 + x_115 + x_114
 + x_113 + x_112 + x_111 + x_110 + x_109 + x_108 + x_107 + x_106 + x_105
 + x_104 + x_103 + x_102 + x_101 + x_100 + x_99 + x_98 + x_97 + x_96
 + x_95 + x_94 >= 0
 r_270: + x_287 + x_87 + x_86 - ~r_270 = 0
 r_271: + x_83 + x_82 >= 0
 r_272: + x_91 >= 0
 r_273: + x_250 + x_249 + x_248 + x_247 + x_242 + x_241 + x_240 + x_239
 + x_234 + x_233 + x_232 + x_231 + x_226 + x_225 + x_224 + x_223 + x_135
 + x_134 + x_133 + x_132 + x_125 + x_124 + x_123 + x_122 + x_117 + x_116
 + x_115 + x_114 + x_109 + x_108 + x_107 + x_106 + x_101 + x_100 + x_99
 + x_98 >= 0
 r_274: + x_73 + x_72 + x_71 + x_70 + x_69 + x_68 + x_67 + x_66 + x_65
 + x_64 + x_63 + x_62 >= 0
 r_275: + x_144 + x_143 >= 0
 r_276: + x_158 + x_157 + x_156 + x_155 + x_154 + x_153 >= 0
 r_277: + x_87 >= 0
 r_278: + x_250 + x_249 + x_248 + x_247 + x_246 + x_245 + x_244 + x_243
 + x_234 + x_233 + x_232 + x_231 + x_230 + x_229 + x_228 + x_227 + x_125
 + x_124 + x_123 + x_122 + x_121 + x_120 + x_119 + x_118 + x_109 + x_108
 + x_107 + x_106 + x_105 + x_104 + x_103 + x_102 >= 0
 r_279: + x_250 + x_249 + x_248 + x_247 + x_246 + x_245 + x_244 + x_243
 + x_242 + x_241 + x_240 + x_239 + x_238 + x_237 + x_236 + x_235 + x_125
 + x_124 + x_123 + x_122 + x_121 + x_120 + x_119 + x_118 + x_117 + x_116
 + x_115 + x_114 + x_113 + x_112 + x_111 + x_110 >= 0
 r_280: + x_293 + x_292 + x_291 + x_290 + x_289 + x_288 + x_287 >= 0
 r_281: + x_293 + x_292 + x_291 + x_290 + x_289 + x_288 + x_287 >= 0
 r_282: + x_23 + x_22 + x_21 >= 0
 r_283: + x_331 + x_330 + x_329 + x_316 + x_315 + x_314 + x_313 + x_312
 + x_311 + x_308 + x_307 + x_306 + x_300 + x_299 + x_298 + x_292 + x_291
 + x_290 + x_250 + x_249 + x_248 + x_246 + x_245 + x_244 + x_242 + x_241
 + x_240 + x_238 + x_237 + x_236 + x_234 + x_233 + x_232 + x_230 + x_229
 + x_228 + x_226 + x_225 + x_224 + x_222 + x_221 + x_220 + x_135 + x_134
 + x_133 + x_131 + x_130 + x_129 + x_125 + x_124 + x_123 + x_121 + x_120
 + x_119 + x_117 + x_116 + x_115 + x_113 + x_112 + x_111 + x_109 + x_108
 + x_107 + x_105 + x_104 + x_103 + x_101 + x_100 + x_99 + x_97 + x_96
 + x_95 + x_29 + x_28 + x_27 + x_23 + x_22 + x_21 + x_18 + x_17 + x_16
 + x_11 + x_10 + x_9 + x_5 + x_4 + x_3 >= 0
 r_284: + x_30 + x_29 + x_28 + x_27 + x_26 + x_25 + x_24 >= 0
 r_285: + x_250 + x_249 + x_248 + x_247 + x_246 + x_245 + x_244 + x_243
 + x_242 + x_241 + x_240 + x_239 + x_238 + x_237 + x_236 + x_235 + x_234
 + x_233 + x_232 + x_231 + x_230 + x_229 + x_228 + x_227 + x_226 + x_225
 + x_224 + x_223 + x_222 + x_221 + x_220 + x_219 + x_135 + x_134 + x_133
 + x_132 + x_131 + x_130 + x_129 + x_128 + x_125 + x_124 + x_123 + x_122
 + x_121 + x_120 + x_119 + x_118 + x_117 + x_116 + x_115 + x_114 + x_113
 + x_112 + x_111 + x_110 + x_109 + x_108 + x_107 + x_106 + x_105 + x_104
 + x_103 + x_102 + x_101 + x_100 + x_99 + x_98 + x_97 + x_96 + x_95
 + x_94 >= 0
 r_286: + x_332 + x_331 + x_330 + x_329 + x_328 + x_327 + x_309 + x_308
 + x_307 + x_306 + x_305 + x_304 + x_301 + x_300 + x_299 + x_298 + x_297
 + x_296 + x_293 + x_292 + x_291 + x_290 + x_289 + x_288 + x_30 + x_29
 + x_28 + x_27 + x_26 + x_25 + x_19 + x_18 + x_17 + x_16 + x_15 + x_14
 + x_12 + x_11 + x_10 + x_9 + x_8 + x_7 + x_6 + x_5 + x_4 + x_3 + x_2
 + x_1 >= 0
 r_287: + x_313 + x_312 + x_311 >= 0
 r_288: + x_332 + x_331 + x_330 + x_329 + x_328 + x_327 + x_326 >= 0
 r_289: + x_278 + x_277 + x_274 + x_273 + x_270 + x_269 >= 0
 r_290: + x_277 + x_273 + x_269 - ~r_290 = 0
 r_291: + x_278 + x_274 + x_270 - ~r_291 = 0
 r_292: + x_48 + x_47 + x_46 + x_45 + x_44 + x_43 + x_42 + x_41 + x_40
 + x_39 - ~r_292 = 0
 r_293: + x_293 + x_292 + x_291 + x_290 + x_289 + x_288 + x_287 + x_286
 - ~r_293 = 0
 r_294: + x_157 + x_151 + x_71 + x_59 + x_45 >= 0
 r_295: + x_66 + x_65 + x_54 + x_53 >= 0
 r_296: + x_48 + x_47 >= 0
 r_297: + x_48 + x_47 + x_46 + x_45 + x_44 + x_43 + x_42 + x_41 >= 0
 r_298: + x_66 + x_54 + x_48 >= 0
 r_299: + x_262 + x_261 >= 0
 r_300: + x_210 + x_209 >= 0
 r_301: + x_209 - ~r_301 = 0
 r_302: + x_210 - ~r_302 = 0
 r_303: + x_332 + x_331 + x_330 + x_329 + x_328 + x_327 + x_309 + x_308
 + x_307 + x_306 + x_305 + x_304 + x_301 + x_300 + x_299 + x_298 + x_297
 + x_296 + x_293 + x_292 + x_291 + x_290 + x_289 + x_288 + x_19 + x_18
 + x_17 + x_16 + x_15 + x_14 + x_6 + x_5 + x_4 + x_3 + x_2 + x_1 >= 0
 r_304: + x_157 + x_156 + x_155 + x_154 + x_153 + x_151 + x_150 + x_149
 + x_148 + x_147 + x_71 + x_70 + x_69 + x_68 + x_67 + x_59 + x_58 + x_57
 + x_56 + x_55 + x_45 + x_44 + x_43 + x_42 + x_41 >= 0
 r_305: + x_38 + x_37 + x_36 + x_35 + x_34 + x_33 + x_32 + x_31 + x_20
 >= 0
 r_306: + x_49 - ~r_306 = 0
 r_307: + x_74 - ~r_307 = 0
 r_308: + x_79 - ~r_308 = 0
 r_309: + x_294 - ~r_309 = 0
 r_310: + x_302 - ~r_310 = 0
 r_311: + x_250 + x_249 + x_248 + x_247 + x_246 + x_245 + x_244 + x_243
 + x_242 + x_241 + x_240 + x_239 + x_238 + x_237 + x_236 + x_235 + x_234
 + x_233 + x_232 + x_231 + x_230 + x_229 + x_228 + x_227 + x_226 + x_225
 + x_224 + x_223 + x_222 + x_221 + x_220 + x_219 + x_125 + x_124 + x_123
 + x_122 + x_121 + x_120 + x_119 + x_118 + x_117 + x_116 + x_115 + x_114
 + x_113 + x_112 + x_111 + x_110 + x_109 + x_108 + x_107 + x_106 + x_105
 + x_104 + x_103 + x_102 + x_101 + x_100 + x_99 + x_98 + x_97 + x_96
 + x_95 + x_94 >= 0
 r_312: + x_332 + x_331 + x_330 + x_329 + x_328 + x_327 + x_309 + x_308
 + x_307 + x_306 + x_305 + x_304 + x_301 + x_300 + x_299 + x_298 + x_297
 + x_296 + x_19 + x_18 + x_17 + x_16 + x_15 + x_14 + x_6 + x_5 + x_4
 + x_3 + x_2 + x_1 >= 0
 r_313: + x_332 + x_331 + x_330 + x_329 + x_328 + x_327 + x_309 + x_308
 + x_307 + x_306 + x_305 + x_304 + x_301 + x_300 + x_299 + x_298 + x_297
 + x_296 + x_293 + x_292 + x_291 + x_290 + x_289 + x_288 + x_19 + x_18
 + x_17 + x_16 + x_15 + x_14 + x_12 + x_11 + x_10 + x_9 + x_8 + x_7
 + x_6 + x_5 + x_4 + x_3 + x_2 + x_1 >= 0
 r_314: + x_332 + x_331 + x_330 + x_329 + x_328 + x_327 + x_326 + x_309
 + x_308 + x_307 + x_306 + x_305 + x_304 + x_303 + x_301 + x_300 + x_299
 + x_298 + x_297 + x_296 + x_295 + x_19 + x_18 + x_17 + x_16 + x_15
 + x_14 + x_13 >= 0
 r_315: + x_332 + x_331 + x_330 + x_329 + x_328 + x_327 + x_326 + x_309
 + x_308 + x_307 + x_306 + x_305 + x_304 + x_303 + x_301 + x_300 + x_299
 + x_298 + x_297 + x_296 + x_295 + x_19 + x_18 + x_17 + x_16 + x_15
 + x_14 + x_13 >= 0
 r_316: + x_325 + x_320 >= 0
 r_317: + x_323 + x_322 + x_321 + x_216 + x_215 + x_214 + x_78 + x_77
 + x_76 >= 0
 r_318: + x_285 >= 0
 r_319: + x_309 + x_308 + x_307 + x_306 + x_305 + x_304 + x_303 + x_301
 + x_300 + x_299 + x_298 + x_297 + x_296 + x_295 >= 0
 r_320: + x_331 + x_330 + x_329 + x_316 + x_315 + x_314 + x_313 + x_312
 + x_311 + x_308 + x_307 + x_306 + x_300 + x_299 + x_298 + x_292 + x_291
 + x_290 + x_250 + x_249 + x_248 + x_246 + x_245 + x_244 + x_242 + x_241
 + x_240 + x_238 + x_237 + x_236 + x_234 + x_233 + x_232 + x_230 + x_229
 + x_228 + x_226 + x_225 + x_224 + x_222 + x_221 + x_220 + x_135 + x_134
 + x_133 + x_131 + x_130 + x_129 + x_125 + x_124 + x_123 + x_121 + x_120
 + x_119 + x_117 + x_116 + x_115 + x_113 + x_112 + x_111 + x_109 + x_108
 + x_107 + x_105 + x_104 + x_103 + x_101 + x_100 + x_99 + x_97 + x_96
 + x_95 + x_29 + x_28 + x_27 + x_18 + x_17 + x_16 + x_11 + x_10 + x_9
 + x_5 + x_4 + x_3 >= 0
 r_321: + x_331 + x_330 + x_329 + x_323 + x_322 + x_321 + x_319 + x_318
 + x_317 + x_316 + x_315 + x_314 + x_313 + x_312 + x_311 + x_308 + x_307
 + x_306 + x_300 + x_299 + x_298 + x_292 + x_291 + x_290 + x_250 + x_249
 + x_248 + x_246 + x_245 + x_244 + x_242 + x_241 + x_240 + x_238 + x_237
 + x_236 + x_234 + x_233 + x_232 + x_230 + x_229 + x_228 + x_226 + x_225
 + x_224 + x_222 + x_221 + x_220 + x_216 + x_215 + x_214 + x_135 + x_134
 + x_133 + x_131 + x_130 + x_129 + x_125 + x_124 + x_123 + x_121 + x_120
 + x_119 + x_117 + x_116 + x_115 + x_113 + x_112 + x_111 + x_109 + x_108
 + x_107 + x_105 + x_104 + x_103 + x_101 + x_100 + x_99 + x_97 + x_96
 + x_95 + x_78 + x_77 + x_76 + x_29 + x_28 + x_27 + x_23 + x_22 + x_21
 + x_18 + x_17 + x_16 + x_11 + x_10 + x_9 + x_5 + x_4 + x_3 >= 0
 r_322: + x_331 + x_330 + x_323 + x_322 + x_319 + x_318 + x_316 + x_315
 + x_313 + x_312 + x_308 + x_307 + x_300 + x_299 + x_292 + x_291 + x_250
 + x_249 + x_246 + x_245 + x_242 + x_241 + x_238 + x_237 + x_234 + x_233
 + x_230 + x_229 + x_226 + x_225 + x_222 + x_221 + x_216 + x_215 + x_135
 + x_134 + x_131 + x_130 + x_125 + x_124 + x_121 + x_120 + x_117 + x_116
 + x_113 + x_112 + x_109 + x_108 + x_105 + x_104 + x_101 + x_100 + x_97
 + x_96 + x_78 + x_77 + x_29 + x_28 + x_23 + x_22 + x_18 + x_17 + x_11
 + x_10 + x_5 + x_4 >= 0
 r_323: + x_325 + x_324 >= 0
 r_324: + x_158 + x_152 + x_72 + x_60 + x_46 >= 0
 r_325: + x_85 + x_84 - x_40 = 0
 r_326: + x_83 + x_82 + x_81 + x_80 - x_85 - x_84 = 0
 r_327: + x_89 + x_88 - x_286 = 0
 r_328: + x_87 + x_86 - x_89 - x_88 = 0
 r_329: + x_93 + x_92 - x_39 = 0
 r_330: + x_91 + x_90 - x_93 - x_92 = 0
 r_331: + x_127 + x_126 - x_326 - x_303 - x_295 - x_13 = 0
 r_332: + x_125 + x_124 + x_123 + x_122 + x_121 + x_120 + x_119 + x_118
 + x_117 + x_116 + x_115 + x_114 + x_113 + x_112 + x_111 + x_110 + x_109
 + x_108 + x_107 + x_106 + x_105 + x_104 + x_103 + x_102 + x_101 + x_100
 + x_99 + x_98 + x_97 + x_96 + x_95 + x_94 - x_127 - x_126 = 0
 r_333: + x_137 + x_136 - x_24 = 0
 r_334: + x_135 + x_134 + x_133 + x_132 + x_131 + x_130 + x_129 + x_128
 - x_137 - x_136 = 0
 r_335: + x_140 + x_139 - x_91 - x_90 = 0
 r_336: + x_138 - x_140 - x_139 = 0
 r_337: + x_146 + x_145 - x_213 - x_75 = 0
 r_338: + x_144 + x_143 + x_142 + x_141 - x_146 - x_145 = 0
 r_339: + x_160 + x_159 - x_64 - x_52 = 0
 r_340: + x_158 + x_157 + x_156 + x_155 + x_154 + x_153 + x_152 + x_151
 + x_150 + x_149 + x_148 + x_147 - x_160 - x_159 = 0
 r_341: + x_164 + x_163 - x_154 - x_148 - x_68 - x_56 - x_42 = 0
 r_342: + x_162 + x_161 - x_164 - x_163 = 0
 r_343: + x_168 + x_167 - x_66 - x_54 - x_48 = 0
 r_344: + x_166 + x_165 - x_168 - x_167 = 0
 r_345: + x_172 + x_171 - x_65 - x_53 = 0
 r_346: + x_170 + x_169 - x_172 - x_171 = 0
 r_347: + x_176 + x_175 - x_155 - x_149 - x_69 - x_57 - x_43 = 0
 r_348: + x_174 + x_173 - x_176 - x_175 = 0
 r_349: + x_180 + x_179 - x_82 - x_80 = 0
 r_350: + x_178 + x_177 - x_180 - x_179 = 0
 r_351: + x_184 + x_183 - x_156 - x_150 - x_70 - x_58 - x_44 = 0
 r_352: + x_182 + x_181 - x_184 - x_183 = 0
 r_353: + x_188 + x_187 - x_327 - x_304 - x_296 - x_288 - x_25 - x_14
 - x_7 - x_1 = 0
 r_354: + x_186 + x_185 - x_188 - x_187 = 0
 r_355: + x_192 + x_191 - x_332 - x_309 - x_301 - x_293 - x_30 - x_19
 - x_12 - x_6 = 0
 r_356: + x_190 + x_189 - x_192 - x_191 = 0
 r_357: + x_196 + x_195 - x_201 = 0
 r_358: + x_194 + x_193 - x_196 - x_195 = 0
 r_359: + x_200 + x_199 - x_331 - x_323 - x_319 - x_316 - x_313 - x_308
 - x_300 - x_292 - x_250 - x_246 - x_242 - x_238 - x_234 - x_230 - x_226
 - x_222 - x_216 - x_202 - x_144 - x_142 - x_135 - x_131 - x_125 - x_121
 - x_117 - x_113 - x_109 - x_105 - x_101 - x_97 - x_78 - x_29 - x_23
 - x_18 - x_11 - x_5 = 0
 r_360: + x_198 + x_197 - x_200 - x_199 = 0
 r_361: + x_204 + x_203 - x_329 - x_321 - x_317 - x_314 - x_311 - x_306
 - x_298 - x_290 - x_248 - x_244 - x_240 - x_236 - x_232 - x_228 - x_224
 - x_220 - x_214 - x_133 - x_129 - x_123 - x_119 - x_115 - x_111 - x_107
 - x_103 - x_99 - x_95 - x_76 - x_27 - x_21 - x_16 - x_9 - x_3 = 0
 r_362: + x_202 + x_201 - x_204 - x_203 = 0
 r_363: + x_208 + x_207 - x_83 - x_81 = 0
 r_364: + x_206 + x_205 - x_208 - x_207 = 0
 r_365: + x_212 + x_211 - x_324 = 0
 r_366: + x_210 + x_209 - x_212 - x_211 = 0
 r_367: + x_218 + x_217 - x_328 - x_305 - x_297 - x_289 - x_247 - x_243
 - x_239 - x_235 - x_231 - x_227 - x_223 - x_219 - x_132 - x_128 - x_122
 - x_118 - x_114 - x_110 - x_106 - x_102 - x_98 - x_94 - x_26 - x_15
 - x_8 - x_2 = 0
 r_368: + x_216 + x_215 + x_214 + x_213 - x_218 - x_217 = 0
 r_369: + x_252 + x_251 - x_287 - x_87 - x_86 = 0
 r_370: + x_250 + x_249 + x_248 + x_247 + x_246 + x_245 + x_244 + x_243
 + x_242 + x_241 + x_240 + x_239 + x_238 + x_237 + x_236 + x_235 + x_234
 + x_233 + x_232 + x_231 + x_230 + x_229 + x_228 + x_227 + x_226 + x_225
 + x_224 + x_223 + x_222 + x_221 + x_220 + x_219 - x_252 - x_251 = 0
 r_371: + x_256 + x_255 - x_157 - x_151 - x_71 - x_59 - x_45 = 0
 r_372: + x_254 + x_253 - x_256 - x_255 = 0
 r_373: + x_260 + x_259 - x_47 = 0
 r_374: + x_258 + x_257 - x_260 - x_259 = 0
 r_375: + x_264 + x_263 - x_62 - x_50 = 0
 r_376: + x_262 + x_261 - x_264 - x_263 = 0
 r_377: + x_268 + x_267 - x_262 = 0
 r_378: + x_266 + x_265 - x_268 - x_267 = 0
 r_379: + x_272 + x_271 - x_261 = 0
 r_380: + x_270 + x_269 - x_272 - x_271 = 0
 r_381: + x_276 + x_275 - x_63 - x_51 = 0
 r_382: + x_274 + x_273 - x_276 - x_275 = 0
 r_383: + x_280 + x_279 - x_73 - x_61 = 0
 r_384: + x_278 + x_277 - x_280 - x_279 = 0
 r_385: + x_284 + x_283 - x_153 - x_147 - x_67 - x_55 - x_41 = 0
 r_386: + x_282 + x_281 - x_284 - x_283 = 0
 r_387: - x_49 - x_48 - x_47 - x_46 - x_45 - x_44 - x_43 - x_42 - x_41
 - x_40 - x_39 + x_330 + x_322 + x_318 + x_315 + x_312 + x_307 + x_299
 + x_291 + x_249 + x_245 + x_241 + x_237 + x_233 + x_229 + x_225 + x_221
 + x_215 + x_143 + x_141 + x_134 + x_130 + x_124 + x_120 + x_116 + x_112
 + x_108 + x_104 + x_100 + x_96 + x_77 + x_28 + x_22 + x_17 + x_10 + x_4
 - ~r_387 = -866625.770000001
 r_388: - x_74 - x_73 - x_72 - x_71 - x_70 - x_69 - x_68 - x_67 - x_66
 - x_65 - x_64 - x_63 - x_62 - x_61 - x_60 - x_59 - x_58 - x_57 - x_56
 - x_55 - x_54 - x_53 - x_52 - x_51 - x_50 + x_138 - ~r_388
 = -433333.333333333
 r_389: - x_79 - x_78 - x_77 - x_76 - x_75 + x_325 + x_320 - ~r_389 = 0
 r_390: - x_294 - x_293 - x_292 - x_291 - x_290 - x_289 - x_288 - x_287
 - x_286 + x_285 - ~r_390 = -30752.1733566667
 r_391: - x_302 - x_301 - x_300 - x_299 - x_298 - x_297 - x_296 - x_295
 + x_310 - ~r_391 = -2666666.66666667

Bounds
 0 <= ~r_3 <= 3110400
 0 <= ~r_4 <= 7257600
 0 <= ~r_5 <= 7257600
 0 <= ~r_10 <= 24192000
 0 <= ~r_11 <= 24192000
 0 <= ~r_14 <= 372671.647870171
 0 <= ~r_15 <= 1461151.07212983
 0 <= ~r_17 <= 719631.081764855
 0 <= ~r_18 <= 550172.438235145
 0 <= ~r_20 <= 25920000
 0 <= ~r_21 <= 25920000
 0 <= ~r_22 <= 102919.68
 0 <= ~r_24 <= 349539.84
 0 <= ~r_25 <= 34007.04
 0 <= ~r_27 <= 97113.6
 0 <= ~r_28 <= 1244.16
 0 <= ~r_30 <= 12165.12
 0 <= ~r_32 <= 7257.6
 0 <= ~r_33 <= 740206.08
 0 <= ~r_34 <= 740206.08
 0 <= ~r_35 <= 1093616.64
 0 <= ~r_36 <= 1093616.64
 0 <= ~r_37 <= 2541559.68
 0 <= ~r_38 <= 2541559.68
 0 <= ~r_39 <= 3628800
 0 <= ~r_40 <= 1728000
 0 <= ~r_41 <= 634245.12
 0 <= ~r_42 <= 3386.88
 0 <= ~r_44 <= 605491.2
 0 <= ~r_45 <= 942727.68
 0 <= ~r_46 <= 1642101.12
 0 <= ~r_48 <= 262725.12
 0 <= ~r_50 <= 270673.92
 0 <= ~r_51 <= 53498.88
 0 <= ~r_54 <= 1209600
 0 <= ~r_55 <= 3144960
 0 <= ~r_56 <= 24192000
 0 <= ~r_57 <= 7300800
 0 <= ~r_58 <= 7257600
 0 <= ~r_59 <= 8553600
 0 <= ~r_60 <= 24192000
 0 <= ~r_61 <= 25920000
 0 <= ~r_62 <= 16761600
 0 <= ~r_68 <= 879274.573347473
 0 <= ~r_69 <= 710001.586652527
 0 <= ~r_88 <= 924203.52
 0 <= ~r_93 <= 3369600
 0 <= ~r_98 <= 24192000
 0 <= ~r_103 <= 4147200
 0 <= ~r_108 <= 1900800
 0 <= ~r_113 <= 24192000
 0 <= ~r_118 <= 25920000
 0 <= ~r_123 <= 25488000
 0 <= ~r_128 <= 102919.68
 0 <= ~r_133 <= 634245.12
 0 <= ~r_138 <= 349539.84
 0 <= ~r_143 <= 34007.04
 0 <= ~r_148 <= 97113.6
 0 <= ~r_153 <= 1244.16
 0 <= ~r_158 <= 12165.12
 0 <= ~r_163 <= 7257.6
 0 <= ~r_168 <= 740206.08
 0 <= ~r_173 <= 1093616.64
 0 <= ~r_178 <= 1833822.72
 0 <= ~r_183 <= 827089.92
 0 <= ~r_188 <= 861638.141915925
 0 <= ~r_193 <= 12096000
 0 <= ~r_198 <= 4147200
 0 <= ~r_203 <= 3386.88
 0 <= ~r_208 <= 605491.2
 0 <= ~r_213 <= 942727.68
 0 <= ~r_218 <= 345600
 0 <= ~r_223 <= 597127.68
 0 <= ~r_228 <= 262725.12
 0 <= ~r_233 <= 270673.92
 0 <= ~r_238 <= 53498.88
 0 <= ~r_242 <= 22697.6286925544
 0 <= ~r_256 <= -187228.078335595
 0 <= ~r_262 <= 11755.3640510599
 0 <= ~r_263 <= 26882.7159489401
 0 <= ~r_265 <= 115204.178236828
 0 <= ~r_266 <= 41214.381763172
 0 <= ~r_270 <= 4320000
 0 <= ~r_290 <= 655380.441081213
 0 <= ~r_291 <= 475146.278918787
 0 <= ~r_292 <= 9268244.37818095
 0 <= ~r_293 <= 165463.100917467
 0 <= ~r_301 <= 664347.165495923
 0 <= ~r_302 <= 197290.976420001
 0 <= ~r_306 <= 50392.0021342573
 0 <= ~r_307 <= 4990.054265625
 0 <= ~r_308 <= 9595.46425049545
 0 <= ~r_309 <= 3161.29180783112
 0 <= ~r_310 <= 148005.888539167
 0 <= ~r_387 <= 37200000
 0 <= ~r_388 <= 433333.333333333
 0 <= ~r_389 <= 1100000
 0 <= ~r_390 <= 5966666.66666667
 0 <= ~r_391 <= 41666666.6666667

End
